
Gurobi 13.0.2 (win64) logging started Thu Jul 23 16:26:24 2026

Set parameter LogFile to value "E:\codes\ExactEBRP\results\gf_gurobi_performance_recovery_round29\runs\stage2__tight_T_seed4101__c3_replica__300s\external\native_logs\R.0.1.0.0.0.0.0.1_lp.gurobi.log"
Gurobi Optimizer version 13.0.2 build v13.0.2rc1 (win64 - Windows 10.0 (19045.2))

CPU model: 12th Gen Intel(R) Core(TM) i7-12700KF, instruction set [SSE2|AVX|AVX2]
Thread count: 12 physical cores, 20 logical processors, using up to 1 threads

Non-default parameters:
TimeLimit  247.452621
MIPGap  0
MIPGapAbs  0
LogToConsole  0
Threads  1

Optimize a model with 11897 rows, 3372 columns and 67355 nonzeros (Min)
Model fingerprint: 0xddfd3009
Model has 21 linear objective coefficients
Coefficient statistics:
  Matrix range     [7e-03, 2e+04]
  Objective range  [7e-03, 1e+00]
  Bounds range     [1e-01, 1e+03]
  RHS range        [1e-01, 5e+04]

Presolve removed 1177 rows and 102 columns
Presolve time: 0.04s
Presolved: 10720 rows, 3271 columns, 62210 nonzeros

Iteration    Objective       Primal Inf.    Dual Inf.      Time
       0    2.8278458e-01   5.860210e+02   0.000000e+00      0s

Extra simplex iterations after uncrush: 1
    3591    3.9833134e-01   0.000000e+00   0.000000e+00      0s

Solved in 3591 iterations and 0.26 seconds (0.73 work units)
Optimal objective  3.983313383e-01

User-callback calls 3738, time in user-callback 0.00 sec
